objective value:                                   -4
t_n_7                                               1 	(obj:-1)
t_n_1448                                            1 	(obj:-1)
t_n_1614                                            1 	(obj:-1)
t_n_1857                                            1 	(obj:-1)
